
Gurobi 9.0.2 (win64) logging started Sat Oct 10 13:35:41 2020

Changed value of parameter logfile to result\v6.2-20201010T1221\scenario_2030_eff070_cab0000.log
   Prev:   Default: 
Gurobi Optimizer version 9.0.2 build v9.0.2rc0 (win64)
Optimize a model with 1384150 rows, 884815 columns and 3912195 nonzeros
Model fingerprint: 0x62cf8dba
Coefficient statistics:
  Matrix range     [1e-07, 3e+05]
  Objective range  [1e+00, 1e+00]
  Bounds range     [0e+00, 0e+00]
  RHS range        [2e-05, 3e+08]
Warning: Model contains large matrix coefficient range
         Consider reformulating model or setting NumericFocus parameter
         to avoid numerical issues.

Concurrent LP optimizer: primal simplex, dual simplex, and barrier
Showing barrier log only...

Presolve removed 1138075 rows and 656242 columns
Presolve time: 3.50s
Presolved: 246075 rows, 342439 columns, 874418 nonzeros

Ordering time: 0.12s

Barrier statistics:
 Dense cols : 8
 AA' NZ     : 7.669e+05
 Factor NZ  : 4.246e+06 (roughly 270 MBytes of memory)
 Factor Ops : 1.048e+08 (less than 1 second per iteration)
 Threads    : 30

                  Objective                Residual
Iter       Primal          Dual         Primal    Dual     Compl     Time
   0  -1.81693799e+16 -1.58517259e+15  5.65e+06 1.56e+04  2.18e+12     4s
   1  -2.24239614e+15 -1.58335056e+15  6.95e+05 4.91e+06  6.80e+11     5s
   2  -1.28994305e+15 -1.27926511e+15  3.99e+05 6.88e+05  1.87e+11     5s
   3  -4.04765220e+14 -1.04775246e+15  1.24e+05 1.90e+05  5.77e+10     5s
   4  -7.78549123e+13 -5.65869765e+14  2.29e+04 2.96e+04  1.06e+10     5s
   5  -3.04800783e+13 -4.60503902e+14  9.33e+03 2.04e+04  5.58e+09     6s
   6  -1.63114537e+13 -3.20401946e+14  5.12e+03 1.09e+04  3.07e+09     6s
   7  -7.56875762e+12 -1.75110043e+14  2.47e+03 2.98e+03  1.16e+09     6s
   8  -2.19509347e+12 -8.47693745e+13  8.22e+02 4.34e+02  3.13e+08     6s
   9   4.42475490e+11 -1.66809522e+13  6.08e+00 5.69e+00  2.62e+07     7s
  10   2.12458926e+11 -1.61854452e+12  8.92e-01 4.82e-01  2.73e+06     7s
  11   1.08661005e+11 -6.27848100e+11  3.82e-01 1.56e-01  1.09e+06     7s
  12   4.77762764e+10 -3.17013826e+11  1.40e-01 6.25e-02  5.38e+05     8s
  13   3.26822737e+10 -1.69458426e+11  8.61e-02 1.67e-02  2.98e+05     8s
  14   1.55376038e+10 -8.46476152e+10  3.03e-02 7.45e-09  1.47e+05     8s
  15   1.11877569e+10 -4.58730142e+10  1.72e-02 5.59e-09  8.39e+04     8s
  16   1.05913063e+10 -1.23858485e+10  1.54e-02 7.45e-09  3.40e+04     9s
  17   7.71172899e+09 -4.89104011e+09  6.33e-03 7.45e-09  1.86e+04     9s
  18   6.05907350e+09  1.68004336e+09  2.23e-03 7.45e-09  6.45e+03     9s
  19   5.75691196e+09  3.47955409e+09  1.60e-03 5.59e-09  3.36e+03     9s
  20   5.51474026e+09  3.81556393e+09  1.10e-03 3.73e-09  2.50e+03    10s
  21   5.47420539e+09  3.90469510e+09  1.01e-03 5.59e-09  2.31e+03    10s
  22   5.41527673e+09  4.10134508e+09  8.85e-04 3.73e-09  1.93e+03    10s
  23   5.39451088e+09  4.30243410e+09  8.45e-04 3.73e-09  1.61e+03    11s
  24   5.22924968e+09  4.57805972e+09  4.80e-04 2.79e-09  9.58e+02    11s
  25   5.14479272e+09  4.70837926e+09  3.04e-04 1.86e-09  6.41e+02    11s
  26   5.10149965e+09  4.82809397e+09  2.10e-04 1.86e-09  4.02e+02    12s
  27   5.07014515e+09  4.88835311e+09  1.44e-04 1.86e-09  2.67e+02    12s
  28   5.05846797e+09  4.90376993e+09  1.19e-04 1.86e-09  2.27e+02    12s
  29   5.04794894e+09  4.92144386e+09  9.66e-05 1.86e-09  1.86e+02    12s
  30   5.03498730e+09  4.94635430e+09  7.01e-05 1.86e-09  1.30e+02    13s
  31   5.02140685e+09  4.96537892e+09  4.12e-05 2.79e-09  8.23e+01    13s
  32   5.01615531e+09  4.97174067e+09  3.02e-05 1.86e-09  6.52e+01    14s
  33   5.01253926e+09  4.97917938e+09  2.27e-05 1.86e-09  4.90e+01    14s
  34   5.00768148e+09  4.98519359e+09  1.24e-05 1.86e-09  3.30e+01    14s
  35   5.00494141e+09  4.98882520e+09  6.65e-06 1.86e-09  2.36e+01    15s
  36   5.00338785e+09  4.99399982e+09  3.47e-06 1.86e-09  1.38e+01    15s
  37   5.00246211e+09  4.99750787e+09  1.60e-06 1.86e-09  7.26e+00    15s
  38   5.00200856e+09  4.99882952e+09  7.52e-07 1.86e-09  4.65e+00    16s
  39   5.00182238e+09  4.99982633e+09  4.22e-07 1.86e-09  2.92e+00    16s
  40   5.00168577e+09  5.00046617e+09  2.27e-07 1.86e-09  1.78e+00    16s
  41   5.00167006e+09  5.00055652e+09  2.00e-07 1.86e-09  1.63e+00    16s
  42   5.00162970e+09  5.00078805e+09  2.02e-07 1.86e-09  1.23e+00    17s
  43   5.00160654e+09  5.00100289e+09  1.09e-07 1.86e-09  8.83e-01    17s
  44   5.00157598e+09  5.00132367e+09  1.95e-07 1.86e-09  3.69e-01    17s
  45   5.00155819e+09  5.00147335e+09  6.51e-07 1.86e-09  1.24e-01    17s
  46   5.00155490e+09  5.00150903e+09  1.09e-07 1.86e-09  6.71e-02    18s
  47   5.00155417e+09  5.00151671e+09  7.04e-08 2.79e-09  5.48e-02    18s
  48   5.00155362e+09  5.00154419e+09  4.14e-08 1.86e-09  1.38e-02    18s
  49   5.00155306e+09  5.00155156e+09  1.09e-08 2.79e-09  2.20e-03    19s
  50   5.00155285e+09  5.00155261e+09  1.21e-09 2.79e-09  3.47e-04    19s
  51   5.00155282e+09  5.00155281e+09  3.11e-09 4.23e-09  5.75e-06    19s
  52   5.00155282e+09  5.00155282e+09  7.48e-10 6.18e-09  5.86e-07    20s
  53   5.00155282e+09  5.00155282e+09  2.79e-09 1.26e-08  1.77e-09    20s

Barrier solved model in 53 iterations and 20.26 seconds
Optimal objective 5.00155282e+09

Crossover log...

   38494 DPushes remaining with DInf 0.0000000e+00                21s
       0 DPushes remaining with DInf 0.0000000e+00                21s

   61757 PPushes remaining with PInf 0.0000000e+00                21s
   21426 PPushes remaining with PInf 0.0000000e+00                28s
    6103 PPushes remaining with PInf 0.0000000e+00                30s
       0 PPushes remaining with PInf 0.0000000e+00                32s

  Push phase complete: Pinf 0.0000000e+00, Dinf 5.7797194e-09     32s

Iteration    Objective       Primal Inf.    Dual Inf.      Time
   73975    5.0015528e+09   0.000000e+00   0.000000e+00     34s

Solved with barrier
Solved in 73975 iterations and 33.90 seconds
Optimal objective  5.001552818e+09
Warning: unscaled primal violation = 0.000872028 and residual = 0.000872028
